#POSCAR written by GB_code 
1 
45.41030720 0.0 0.0 
0.0 7.18000000 0.0 
0.0 0.0 11.35257680 
Cu
312
Cartesian
2.27051536 1.79500000 4.54103072
2.27051536 5.38500000 4.54103072
7.94680376 1.79500000 4.54103072
7.94680376 5.38500000 4.54103072
13.62309216 1.79500000 4.54103072
13.62309216 5.38500000 4.54103072
19.29938056 1.79500000 4.54103072
19.29938056 5.38500000 4.54103072
2.27051536 1.79500000 10.21731912
2.27051536 5.38500000 10.21731912
7.94680376 1.79500000 10.21731912
7.94680376 5.38500000 10.21731912
13.62309216 1.79500000 10.21731912
13.62309216 5.38500000 10.21731912
19.29938056 1.79500000 10.21731912
19.29938056 5.38500000 10.21731912
0.00000000 1.79500000 0.00000000
0.00000000 5.38500000 0.00000000
5.67628840 1.79500000 0.00000000
5.67628840 5.38500000 0.00000000
11.35257680 1.79500000 0.00000000
11.35257680 5.38500000 0.00000000
17.02886520 1.79500000 0.00000000
17.02886520 5.38500000 0.00000000
0.00000000 1.79500000 5.67628840
0.00000000 5.38500000 5.67628840
5.67628840 1.79500000 5.67628840
5.67628840 5.38500000 5.67628840
11.35257680 1.79500000 5.67628840
11.35257680 5.38500000 5.67628840
17.02886520 1.79500000 5.67628840
17.02886520 5.38500000 5.67628840
1.13525768 1.79500000 2.27051536
1.13525768 5.38500000 2.27051536
6.81154608 1.79500000 2.27051536
6.81154608 5.38500000 2.27051536
12.48783448 1.79500000 2.27051536
12.48783448 5.38500000 2.27051536
18.16412288 1.79500000 2.27051536
18.16412288 5.38500000 2.27051536
1.13525768 1.79500000 7.94680376
1.13525768 5.38500000 7.94680376
6.81154608 1.79500000 7.94680376
6.81154608 5.38500000 7.94680376
12.48783448 1.79500000 7.94680376
12.48783448 5.38500000 7.94680376
18.16412288 1.79500000 7.94680376
18.16412288 5.38500000 7.94680376
3.40577304 1.79500000 1.13525768
3.40577304 5.38500000 1.13525768
9.08206144 1.79500000 1.13525768
9.08206144 5.38500000 1.13525768
14.75834984 1.79500000 1.13525768
14.75834984 5.38500000 1.13525768
20.43463824 1.79500000 1.13525768
20.43463824 5.38500000 1.13525768
3.40577304 1.79500000 6.81154608
3.40577304 5.38500000 6.81154608
9.08206144 1.79500000 6.81154608
9.08206144 5.38500000 6.81154608
14.75834984 1.79500000 6.81154608
14.75834984 5.38500000 6.81154608
20.43463824 1.79500000 6.81154608
20.43463824 5.38500000 6.81154608
4.54103072 1.79500000 3.40577304
4.54103072 5.38500000 3.40577304
10.21731912 1.79500000 3.40577304
10.21731912 5.38500000 3.40577304
15.89360752 1.79500000 3.40577304
15.89360752 5.38500000 3.40577304
21.56989592 1.79500000 3.40577304
21.56989592 5.38500000 3.40577304
4.54103072 1.79500000 9.08206144
4.54103072 5.38500000 9.08206144
10.21731912 1.79500000 9.08206144
10.21731912 5.38500000 9.08206144
15.89360752 1.79500000 9.08206144
15.89360752 5.38500000 9.08206144
21.56989592 1.79500000 9.08206144
21.56989592 5.38500000 9.08206144
6.24391724 0.00000000 3.97340188
6.24391724 3.59000000 3.97340188
11.92020564 0.00000000 3.97340188
11.92020564 3.59000000 3.97340188
17.59649404 0.00000000 3.97340188
17.59649404 3.59000000 3.97340188
6.24391724 0.00000000 9.64969028
6.24391724 3.59000000 9.64969028
11.92020564 0.00000000 9.64969028
11.92020564 3.59000000 9.64969028
17.59649404 0.00000000 9.64969028
17.59649404 3.59000000 9.64969028
3.97340188 0.00000000 5.10865956
3.97340188 3.59000000 5.10865956
9.64969028 0.00000000 5.10865956
9.64969028 3.59000000 5.10865956
15.32597868 0.00000000 5.10865956
15.32597868 3.59000000 5.10865956
21.00226708 0.00000000 5.10865956
21.00226708 3.59000000 5.10865956
3.97340188 0.00000000 10.78494796
3.97340188 3.59000000 10.78494796
9.64969028 0.00000000 10.78494796
9.64969028 3.59000000 10.78494796
15.32597868 0.00000000 10.78494796
15.32597868 3.59000000 10.78494796
21.00226708 0.00000000 10.78494796
21.00226708 3.59000000 10.78494796
1.70288652 0.00000000 0.56762884
1.70288652 3.59000000 0.56762884
7.37917492 0.00000000 0.56762884
7.37917492 3.59000000 0.56762884
13.05546332 0.00000000 0.56762884
13.05546332 3.59000000 0.56762884
18.73175172 0.00000000 0.56762884
18.73175172 3.59000000 0.56762884
1.70288652 0.00000000 6.24391724
1.70288652 3.59000000 6.24391724
7.37917492 0.00000000 6.24391724
7.37917492 3.59000000 6.24391724
13.05546332 0.00000000 6.24391724
13.05546332 3.59000000 6.24391724
18.73175172 0.00000000 6.24391724
18.73175172 3.59000000 6.24391724
2.83814420 0.00000000 2.83814420
2.83814420 3.59000000 2.83814420
8.51443260 0.00000000 2.83814420
8.51443260 3.59000000 2.83814420
14.19072100 0.00000000 2.83814420
14.19072100 3.59000000 2.83814420
19.86700940 0.00000000 2.83814420
19.86700940 3.59000000 2.83814420
2.83814420 0.00000000 8.51443260
2.83814420 3.59000000 8.51443260
8.51443260 0.00000000 8.51443260
8.51443260 3.59000000 8.51443260
14.19072100 0.00000000 8.51443260
14.19072100 3.59000000 8.51443260
19.86700940 0.00000000 8.51443260
19.86700940 3.59000000 8.51443260
5.10865956 0.00000000 1.70288652
5.10865956 3.59000000 1.70288652
10.78494796 0.00000000 1.70288652
10.78494796 3.59000000 1.70288652
16.46123636 0.00000000 1.70288652
16.46123636 3.59000000 1.70288652
5.10865956 0.00000000 7.37917492
5.10865956 3.59000000 7.37917492
10.78494796 0.00000000 7.37917492
10.78494796 3.59000000 7.37917492
16.46123636 0.00000000 7.37917492
16.46123636 3.59000000 7.37917492
-2.27051536 1.79500000 4.54103072
-2.27051536 5.38500000 4.54103072
-7.94680376 1.79500000 4.54103072
-7.94680376 5.38500000 4.54103072
-13.62309216 1.79500000 4.54103072
-13.62309216 5.38500000 4.54103072
-19.29938056 1.79500000 4.54103072
-19.29938056 5.38500000 4.54103072
-2.27051536 1.79500000 10.21731912
-2.27051536 5.38500000 10.21731912
-7.94680376 1.79500000 10.21731912
-7.94680376 5.38500000 10.21731912
-13.62309216 1.79500000 10.21731912
-13.62309216 5.38500000 10.21731912
-19.29938056 1.79500000 10.21731912
-19.29938056 5.38500000 10.21731912
-4.54103072 1.79500000 3.40577304
-4.54103072 5.38500000 3.40577304
-10.21731912 1.79500000 3.40577304
-10.21731912 5.38500000 3.40577304
-15.89360752 1.79500000 3.40577304
-15.89360752 5.38500000 3.40577304
-21.56989592 1.79500000 3.40577304
-21.56989592 5.38500000 3.40577304
-4.54103072 1.79500000 9.08206144
-4.54103072 5.38500000 9.08206144
-10.21731912 1.79500000 9.08206144
-10.21731912 5.38500000 9.08206144
-15.89360752 1.79500000 9.08206144
-15.89360752 5.38500000 9.08206144
-21.56989592 1.79500000 9.08206144
-21.56989592 5.38500000 9.08206144
-3.40577304 1.79500000 1.13525768
-3.40577304 5.38500000 1.13525768
-9.08206144 1.79500000 1.13525768
-9.08206144 5.38500000 1.13525768
-14.75834984 1.79500000 1.13525768
-14.75834984 5.38500000 1.13525768
-20.43463824 1.79500000 1.13525768
-20.43463824 5.38500000 1.13525768
-3.40577304 1.79500000 6.81154608
-3.40577304 5.38500000 6.81154608
-9.08206144 1.79500000 6.81154608
-9.08206144 5.38500000 6.81154608
-14.75834984 1.79500000 6.81154608
-14.75834984 5.38500000 6.81154608
-20.43463824 1.79500000 6.81154608
-20.43463824 5.38500000 6.81154608
-1.13525768 1.79500000 2.27051536
-1.13525768 5.38500000 2.27051536
-6.81154608 1.79500000 2.27051536
-6.81154608 5.38500000 2.27051536
-12.48783448 1.79500000 2.27051536
-12.48783448 5.38500000 2.27051536
-18.16412288 1.79500000 2.27051536
-18.16412288 5.38500000 2.27051536
-1.13525768 1.79500000 7.94680376
-1.13525768 5.38500000 7.94680376
-6.81154608 1.79500000 7.94680376
-6.81154608 5.38500000 7.94680376
-12.48783448 1.79500000 7.94680376
-12.48783448 5.38500000 7.94680376
-18.16412288 1.79500000 7.94680376
-18.16412288 5.38500000 7.94680376
-5.67628840 1.79500000 0.00000000
-5.67628840 5.38500000 0.00000000
-11.35257680 1.79500000 0.00000000
-11.35257680 5.38500000 0.00000000
-17.02886520 1.79500000 0.00000000
-17.02886520 5.38500000 0.00000000
-22.70515360 1.79500000 0.00000000
-22.70515360 5.38500000 0.00000000
-5.67628840 1.79500000 5.67628840
-5.67628840 5.38500000 5.67628840
-11.35257680 1.79500000 5.67628840
-11.35257680 5.38500000 5.67628840
-17.02886520 1.79500000 5.67628840
-17.02886520 5.38500000 5.67628840
-22.70515360 1.79500000 5.67628840
-22.70515360 5.38500000 5.67628840
-3.97340188 0.00000000 5.10865956
-3.97340188 3.59000000 5.10865956
-9.64969028 0.00000000 5.10865956
-9.64969028 3.59000000 5.10865956
-15.32597868 0.00000000 5.10865956
-15.32597868 3.59000000 5.10865956
-21.00226708 0.00000000 5.10865956
-21.00226708 3.59000000 5.10865956
-3.97340188 0.00000000 10.78494796
-3.97340188 3.59000000 10.78494796
-9.64969028 0.00000000 10.78494796
-9.64969028 3.59000000 10.78494796
-15.32597868 0.00000000 10.78494796
-15.32597868 3.59000000 10.78494796
-21.00226708 0.00000000 10.78494796
-21.00226708 3.59000000 10.78494796
-0.56762884 0.00000000 3.97340188
-0.56762884 3.59000000 3.97340188
-6.24391724 0.00000000 3.97340188
-6.24391724 3.59000000 3.97340188
-11.92020564 0.00000000 3.97340188
-11.92020564 3.59000000 3.97340188
-17.59649404 0.00000000 3.97340188
-17.59649404 3.59000000 3.97340188
-0.56762884 0.00000000 9.64969028
-0.56762884 3.59000000 9.64969028
-6.24391724 0.00000000 9.64969028
-6.24391724 3.59000000 9.64969028
-11.92020564 0.00000000 9.64969028
-11.92020564 3.59000000 9.64969028
-17.59649404 0.00000000 9.64969028
-17.59649404 3.59000000 9.64969028
-5.10865956 0.00000000 1.70288652
-5.10865956 3.59000000 1.70288652
-10.78494796 0.00000000 1.70288652
-10.78494796 3.59000000 1.70288652
-16.46123636 0.00000000 1.70288652
-16.46123636 3.59000000 1.70288652
-22.13752476 0.00000000 1.70288652
-22.13752476 3.59000000 1.70288652
-5.10865956 0.00000000 7.37917492
-5.10865956 3.59000000 7.37917492
-10.78494796 0.00000000 7.37917492
-10.78494796 3.59000000 7.37917492
-16.46123636 0.00000000 7.37917492
-16.46123636 3.59000000 7.37917492
-22.13752476 0.00000000 7.37917492
-22.13752476 3.59000000 7.37917492
-2.83814420 0.00000000 2.83814420
-2.83814420 3.59000000 2.83814420
-8.51443260 0.00000000 2.83814420
-8.51443260 3.59000000 2.83814420
-14.19072100 0.00000000 2.83814420
-14.19072100 3.59000000 2.83814420
-19.86700940 0.00000000 2.83814420
-19.86700940 3.59000000 2.83814420
-2.83814420 0.00000000 8.51443260
-2.83814420 3.59000000 8.51443260
-8.51443260 0.00000000 8.51443260
-8.51443260 3.59000000 8.51443260
-14.19072100 0.00000000 8.51443260
-14.19072100 3.59000000 8.51443260
-19.86700940 0.00000000 8.51443260
-19.86700940 3.59000000 8.51443260
-1.70288652 0.00000000 0.56762884
-1.70288652 3.59000000 0.56762884
-7.37917492 0.00000000 0.56762884
-7.37917492 3.59000000 0.56762884
-13.05546332 0.00000000 0.56762884
-13.05546332 3.59000000 0.56762884
-18.73175172 0.00000000 0.56762884
-18.73175172 3.59000000 0.56762884
-1.70288652 0.00000000 6.24391724
-1.70288652 3.59000000 6.24391724
-7.37917492 0.00000000 6.24391724
-7.37917492 3.59000000 6.24391724
-13.05546332 0.00000000 6.24391724
-13.05546332 3.59000000 6.24391724
-18.73175172 0.00000000 6.24391724
-18.73175172 3.59000000 6.24391724
