units 	metal 	
dimension 	3 	
boundary 	p p p 	
atom_style 	atomic 	
read_data 	bulk.lmp
include 	potential.inp 	
variable dumptime 	equal 100 	
variable thermotime 	equal 100 	
min_style 	cg 	

compute peratom all pe/atom 
dump 1 	all custom ${dumptime} dump.out id type xsu ysu zsu fx fy fz vx vy vz
dump_modify 1 	sort id format line "%d %d %20.15g %20.15g %20.15g %20.15g %20.15g %20.15g %20.15g %20.15g %20.15g" 	

dump 2 all custom ${dumptime} dump_e_atom.out id type xsu ysu zsu c_peratom
dump_modify 2 sort id format line "%d %d %20.15g %20.15g %20.15g %20.15g"

dump 3 all custom 100 dump3_*.out id type x y z
dump_modify 3 sort id

thermo_style 	custom step temp pe etotal pxx pxy pxz pyy pyz pzz vol 	
thermo_modify 	format float %20.15g 	
thermo 	${thermotime} 	
#fix         br all box/relax x 10. y 10. z 10. 
minimize 	0.0 0.0001 100000 10000000 	
#unfix		br

