#POSCAR written by GB_code 
1 
59.20779678 0.0 0.0 
0.0 29.60389839 0.0 
0.0 0.0 7.18000000 
Cu
1072
Cartesian
15.23730064 1.74140579 1.79500000
15.23730064 16.54335498 1.79500000
15.23730064 1.74140579 5.38500000
15.23730064 16.54335498 5.38500000
3.91816302 0.87070289 1.79500000
3.91816302 15.67265209 1.79500000
18.72011222 0.87070289 1.79500000
18.72011222 15.67265209 1.79500000
3.91816302 0.87070289 5.38500000
3.91816302 15.67265209 5.38500000
18.72011222 0.87070289 5.38500000
18.72011222 15.67265209 5.38500000
7.40097460 0.00000000 1.79500000
7.40097460 14.80194920 1.79500000
22.20292379 0.00000000 1.79500000
22.20292379 14.80194920 1.79500000
7.40097460 0.00000000 5.38500000
7.40097460 14.80194920 5.38500000
22.20292379 0.00000000 5.38500000
22.20292379 14.80194920 5.38500000
1.30605434 5.22421736 1.79500000
1.30605434 20.02616656 1.79500000
16.10800354 5.22421736 1.79500000
16.10800354 20.02616656 1.79500000
1.30605434 5.22421736 5.38500000
1.30605434 20.02616656 5.38500000
16.10800354 5.22421736 5.38500000
16.10800354 20.02616656 5.38500000
2.61210868 3.04746013 1.79500000
2.61210868 17.84940932 1.79500000
17.41405788 3.04746013 1.79500000
17.41405788 17.84940932 1.79500000
2.61210868 3.04746013 5.38500000
2.61210868 17.84940932 5.38500000
17.41405788 3.04746013 5.38500000
17.41405788 17.84940932 5.38500000
4.78886592 4.35351447 1.79500000
4.78886592 19.15546367 1.79500000
19.59081511 4.35351447 1.79500000
19.59081511 19.15546367 1.79500000
4.78886592 4.35351447 5.38500000
4.78886592 19.15546367 5.38500000
19.59081511 4.35351447 5.38500000
19.59081511 19.15546367 5.38500000
6.09492026 2.17675723 1.79500000
6.09492026 16.97870643 1.79500000
20.89686945 2.17675723 1.79500000
20.89686945 16.97870643 1.79500000
6.09492026 2.17675723 5.38500000
6.09492026 16.97870643 5.38500000
20.89686945 2.17675723 5.38500000
20.89686945 16.97870643 5.38500000
8.27167749 3.48281158 1.79500000
8.27167749 18.28476077 1.79500000
23.07362669 3.48281158 1.79500000
23.07362669 18.28476077 1.79500000
8.27167749 3.48281158 5.38500000
8.27167749 18.28476077 5.38500000
23.07362669 3.48281158 5.38500000
23.07362669 18.28476077 5.38500000
9.57773183 1.30605434 1.79500000
9.57773183 16.10800354 1.79500000
24.37968103 1.30605434 1.79500000
24.37968103 16.10800354 1.79500000
9.57773183 1.30605434 5.38500000
9.57773183 16.10800354 5.38500000
24.37968103 1.30605434 5.38500000
24.37968103 16.10800354 5.38500000
11.75448907 2.61210868 1.79500000
11.75448907 17.41405788 1.79500000
26.55643826 2.61210868 1.79500000
26.55643826 17.41405788 1.79500000
11.75448907 2.61210868 5.38500000
11.75448907 17.41405788 5.38500000
26.55643826 2.61210868 5.38500000
26.55643826 17.41405788 5.38500000
13.06054341 0.43535145 1.79500000
13.06054341 15.23730064 1.79500000
27.86249260 0.43535145 1.79500000
27.86249260 15.23730064 1.79500000
13.06054341 0.43535145 5.38500000
13.06054341 15.23730064 5.38500000
27.86249260 0.43535145 5.38500000
27.86249260 15.23730064 5.38500000
0.00000000 7.40097460 1.79500000
0.00000000 22.20292379 1.79500000
14.80194920 7.40097460 1.79500000
14.80194920 22.20292379 1.79500000
0.00000000 7.40097460 5.38500000
0.00000000 22.20292379 5.38500000
14.80194920 7.40097460 5.38500000
14.80194920 22.20292379 5.38500000
2.17675723 8.70702894 1.79500000
2.17675723 23.50897813 1.79500000
16.97870643 8.70702894 1.79500000
16.97870643 23.50897813 1.79500000
2.17675723 8.70702894 5.38500000
2.17675723 23.50897813 5.38500000
16.97870643 8.70702894 5.38500000
16.97870643 23.50897813 5.38500000
3.48281158 6.53027170 1.79500000
3.48281158 21.33222090 1.79500000
18.28476077 6.53027170 1.79500000
18.28476077 21.33222090 1.79500000
3.48281158 6.53027170 5.38500000
3.48281158 21.33222090 5.38500000
18.28476077 6.53027170 5.38500000
18.28476077 21.33222090 5.38500000
5.65956881 7.83632604 1.79500000
5.65956881 22.63827524 1.79500000
20.46151801 7.83632604 1.79500000
20.46151801 22.63827524 1.79500000
5.65956881 7.83632604 5.38500000
5.65956881 22.63827524 5.38500000
20.46151801 7.83632604 5.38500000
20.46151801 22.63827524 5.38500000
6.96562315 5.65956881 1.79500000
6.96562315 20.46151801 1.79500000
21.76757235 5.65956881 1.79500000
21.76757235 20.46151801 1.79500000
6.96562315 5.65956881 5.38500000
6.96562315 20.46151801 5.38500000
21.76757235 5.65956881 5.38500000
21.76757235 20.46151801 5.38500000
9.14238039 6.96562315 1.79500000
9.14238039 21.76757235 1.79500000
23.94432958 6.96562315 1.79500000
23.94432958 21.76757235 1.79500000
9.14238039 6.96562315 5.38500000
9.14238039 21.76757235 5.38500000
23.94432958 6.96562315 5.38500000
23.94432958 21.76757235 5.38500000
10.44843473 4.78886592 1.79500000
10.44843473 19.59081511 1.79500000
25.25038392 4.78886592 1.79500000
25.25038392 19.59081511 1.79500000
10.44843473 4.78886592 5.38500000
10.44843473 19.59081511 5.38500000
25.25038392 4.78886592 5.38500000
25.25038392 19.59081511 5.38500000
12.62519196 6.09492026 1.79500000
12.62519196 20.89686945 1.79500000
27.42714116 6.09492026 1.79500000
27.42714116 20.89686945 1.79500000
12.62519196 6.09492026 5.38500000
12.62519196 20.89686945 5.38500000
27.42714116 6.09492026 5.38500000
27.42714116 20.89686945 5.38500000
13.93124630 3.91816302 1.79500000
13.93124630 18.72011222 1.79500000
28.73319550 3.91816302 1.79500000
28.73319550 18.72011222 1.79500000
13.93124630 3.91816302 5.38500000
13.93124630 18.72011222 5.38500000
28.73319550 3.91816302 5.38500000
28.73319550 18.72011222 5.38500000
0.87070289 10.88378617 1.79500000
0.87070289 25.68573537 1.79500000
15.67265209 10.88378617 1.79500000
15.67265209 25.68573537 1.79500000
0.87070289 10.88378617 5.38500000
0.87070289 25.68573537 5.38500000
15.67265209 10.88378617 5.38500000
15.67265209 25.68573537 5.38500000
3.04746013 12.18984051 1.79500000
3.04746013 26.99178971 1.79500000
17.84940932 12.18984051 1.79500000
17.84940932 26.99178971 1.79500000
3.04746013 12.18984051 5.38500000
3.04746013 26.99178971 5.38500000
17.84940932 12.18984051 5.38500000
17.84940932 26.99178971 5.38500000
4.35351447 10.01308328 1.79500000
4.35351447 24.81503248 1.79500000
19.15546367 10.01308328 1.79500000
19.15546367 24.81503248 1.79500000
4.35351447 10.01308328 5.38500000
4.35351447 24.81503248 5.38500000
19.15546367 10.01308328 5.38500000
19.15546367 24.81503248 5.38500000
6.53027170 11.31913762 1.79500000
6.53027170 26.12108682 1.79500000
21.33222090 11.31913762 1.79500000
21.33222090 26.12108682 1.79500000
6.53027170 11.31913762 5.38500000
6.53027170 26.12108682 5.38500000
21.33222090 11.31913762 5.38500000
21.33222090 26.12108682 5.38500000
7.83632604 9.14238039 1.79500000
7.83632604 23.94432958 1.79500000
22.63827524 9.14238039 1.79500000
22.63827524 23.94432958 1.79500000
7.83632604 9.14238039 5.38500000
7.83632604 23.94432958 5.38500000
22.63827524 9.14238039 5.38500000
22.63827524 23.94432958 5.38500000
10.01308328 10.44843473 1.79500000
10.01308328 25.25038392 1.79500000
24.81503248 10.44843473 1.79500000
24.81503248 25.25038392 1.79500000
10.01308328 10.44843473 5.38500000
10.01308328 25.25038392 5.38500000
24.81503248 10.44843473 5.38500000
24.81503248 25.25038392 5.38500000
11.31913762 8.27167749 1.79500000
11.31913762 23.07362669 1.79500000
26.12108682 8.27167749 1.79500000
26.12108682 23.07362669 1.79500000
11.31913762 8.27167749 5.38500000
11.31913762 23.07362669 5.38500000
26.12108682 8.27167749 5.38500000
26.12108682 23.07362669 5.38500000
13.49589486 9.57773183 1.79500000
13.49589486 24.37968103 1.79500000
28.29784405 9.57773183 1.79500000
28.29784405 24.37968103 1.79500000
13.49589486 9.57773183 5.38500000
13.49589486 24.37968103 5.38500000
28.29784405 9.57773183 5.38500000
28.29784405 24.37968103 5.38500000
1.74140579 14.36659775 1.79500000
1.74140579 29.16854694 1.79500000
16.54335498 14.36659775 1.79500000
16.54335498 29.16854694 1.79500000
1.74140579 14.36659775 5.38500000
1.74140579 29.16854694 5.38500000
16.54335498 14.36659775 5.38500000
16.54335498 29.16854694 5.38500000
5.22421736 13.49589486 1.79500000
5.22421736 28.29784405 1.79500000
20.02616656 13.49589486 1.79500000
20.02616656 28.29784405 1.79500000
5.22421736 13.49589486 5.38500000
5.22421736 28.29784405 5.38500000
20.02616656 13.49589486 5.38500000
20.02616656 28.29784405 5.38500000
8.70702894 12.62519196 1.79500000
8.70702894 27.42714116 1.79500000
23.50897813 12.62519196 1.79500000
23.50897813 27.42714116 1.79500000
8.70702894 12.62519196 5.38500000
8.70702894 27.42714116 5.38500000
23.50897813 12.62519196 5.38500000
23.50897813 27.42714116 5.38500000
10.88378617 13.93124630 1.79500000
10.88378617 28.73319550 1.79500000
25.68573537 13.93124630 1.79500000
25.68573537 28.73319550 1.79500000
10.88378617 13.93124630 5.38500000
10.88378617 28.73319550 5.38500000
25.68573537 13.93124630 5.38500000
25.68573537 28.73319550 5.38500000
12.18984051 11.75448907 1.79500000
12.18984051 26.55643826 1.79500000
26.99178971 11.75448907 1.79500000
26.99178971 26.55643826 1.79500000
12.18984051 11.75448907 5.38500000
12.18984051 26.55643826 5.38500000
26.99178971 11.75448907 5.38500000
26.99178971 26.55643826 5.38500000
14.36659775 13.06054341 1.79500000
14.36659775 27.86249260 1.79500000
14.36659775 13.06054341 5.38500000
14.36659775 27.86249260 5.38500000
0.00000000 0.00000000 0.00000000
0.00000000 14.80194920 0.00000000
14.80194920 0.00000000 0.00000000
14.80194920 14.80194920 0.00000000
0.00000000 0.00000000 3.59000000
0.00000000 14.80194920 3.59000000
14.80194920 0.00000000 3.59000000
14.80194920 14.80194920 3.59000000
2.17675723 1.30605434 0.00000000
2.17675723 16.10800354 0.00000000
16.97870643 1.30605434 0.00000000
16.97870643 16.10800354 0.00000000
2.17675723 1.30605434 3.59000000
2.17675723 16.10800354 3.59000000
16.97870643 1.30605434 3.59000000
16.97870643 16.10800354 3.59000000
5.65956881 0.43535145 0.00000000
5.65956881 15.23730064 0.00000000
20.46151801 0.43535145 0.00000000
20.46151801 15.23730064 0.00000000
5.65956881 0.43535145 3.59000000
5.65956881 15.23730064 3.59000000
20.46151801 0.43535145 3.59000000
20.46151801 15.23730064 3.59000000
0.87070289 3.48281158 0.00000000
0.87070289 18.28476077 0.00000000
15.67265209 3.48281158 0.00000000
15.67265209 18.28476077 0.00000000
0.87070289 3.48281158 3.59000000
0.87070289 18.28476077 3.59000000
15.67265209 3.48281158 3.59000000
15.67265209 18.28476077 3.59000000
3.04746013 4.78886592 0.00000000
3.04746013 19.59081511 0.00000000
17.84940932 4.78886592 0.00000000
17.84940932 19.59081511 0.00000000
3.04746013 4.78886592 3.59000000
3.04746013 19.59081511 3.59000000
17.84940932 4.78886592 3.59000000
17.84940932 19.59081511 3.59000000
4.35351447 2.61210868 0.00000000
4.35351447 17.41405788 0.00000000
19.15546367 2.61210868 0.00000000
19.15546367 17.41405788 0.00000000
4.35351447 2.61210868 3.59000000
4.35351447 17.41405788 3.59000000
19.15546367 2.61210868 3.59000000
19.15546367 17.41405788 3.59000000
6.53027170 3.91816302 0.00000000
6.53027170 18.72011222 0.00000000
21.33222090 3.91816302 0.00000000
21.33222090 18.72011222 0.00000000
6.53027170 3.91816302 3.59000000
6.53027170 18.72011222 3.59000000
21.33222090 3.91816302 3.59000000
21.33222090 18.72011222 3.59000000
7.83632604 1.74140579 0.00000000
7.83632604 16.54335498 0.00000000
22.63827524 1.74140579 0.00000000
22.63827524 16.54335498 0.00000000
7.83632604 1.74140579 3.59000000
7.83632604 16.54335498 3.59000000
22.63827524 1.74140579 3.59000000
22.63827524 16.54335498 3.59000000
10.01308328 3.04746013 0.00000000
10.01308328 17.84940932 0.00000000
24.81503248 3.04746013 0.00000000
24.81503248 17.84940932 0.00000000
10.01308328 3.04746013 3.59000000
10.01308328 17.84940932 3.59000000
24.81503248 3.04746013 3.59000000
24.81503248 17.84940932 3.59000000
11.31913762 0.87070289 0.00000000
11.31913762 15.67265209 0.00000000
26.12108682 0.87070289 0.00000000
26.12108682 15.67265209 0.00000000
11.31913762 0.87070289 3.59000000
11.31913762 15.67265209 3.59000000
26.12108682 0.87070289 3.59000000
26.12108682 15.67265209 3.59000000
13.49589486 2.17675723 0.00000000
13.49589486 16.97870643 0.00000000
28.29784405 2.17675723 0.00000000
28.29784405 16.97870643 0.00000000
13.49589486 2.17675723 3.59000000
13.49589486 16.97870643 3.59000000
28.29784405 2.17675723 3.59000000
28.29784405 16.97870643 3.59000000
15.23730064 9.14238039 0.00000000
15.23730064 23.94432958 0.00000000
15.23730064 9.14238039 3.59000000
15.23730064 23.94432958 3.59000000
1.74140579 6.96562315 0.00000000
1.74140579 21.76757235 0.00000000
16.54335498 6.96562315 0.00000000
16.54335498 21.76757235 0.00000000
1.74140579 6.96562315 3.59000000
1.74140579 21.76757235 3.59000000
16.54335498 6.96562315 3.59000000
16.54335498 21.76757235 3.59000000
3.91816302 8.27167749 0.00000000
3.91816302 23.07362669 0.00000000
18.72011222 8.27167749 0.00000000
18.72011222 23.07362669 0.00000000
3.91816302 8.27167749 3.59000000
3.91816302 23.07362669 3.59000000
18.72011222 8.27167749 3.59000000
18.72011222 23.07362669 3.59000000
5.22421736 6.09492026 0.00000000
5.22421736 20.89686945 0.00000000
20.02616656 6.09492026 0.00000000
20.02616656 20.89686945 0.00000000
5.22421736 6.09492026 3.59000000
5.22421736 20.89686945 3.59000000
20.02616656 6.09492026 3.59000000
20.02616656 20.89686945 3.59000000
7.40097460 7.40097460 0.00000000
7.40097460 22.20292379 0.00000000
22.20292379 7.40097460 0.00000000
22.20292379 22.20292379 0.00000000
7.40097460 7.40097460 3.59000000
7.40097460 22.20292379 3.59000000
22.20292379 7.40097460 3.59000000
22.20292379 22.20292379 3.59000000
8.70702894 5.22421736 0.00000000
8.70702894 20.02616656 0.00000000
23.50897813 5.22421736 0.00000000
23.50897813 20.02616656 0.00000000
8.70702894 5.22421736 3.59000000
8.70702894 20.02616656 3.59000000
23.50897813 5.22421736 3.59000000
23.50897813 20.02616656 3.59000000
10.88378617 6.53027170 0.00000000
10.88378617 21.33222090 0.00000000
25.68573537 6.53027170 0.00000000
25.68573537 21.33222090 0.00000000
10.88378617 6.53027170 3.59000000
10.88378617 21.33222090 3.59000000
25.68573537 6.53027170 3.59000000
25.68573537 21.33222090 3.59000000
12.18984051 4.35351447 0.00000000
12.18984051 19.15546367 0.00000000
26.99178971 4.35351447 0.00000000
26.99178971 19.15546367 0.00000000
12.18984051 4.35351447 3.59000000
12.18984051 19.15546367 3.59000000
26.99178971 4.35351447 3.59000000
26.99178971 19.15546367 3.59000000
14.36659775 5.65956881 0.00000000
14.36659775 20.46151801 0.00000000
14.36659775 5.65956881 3.59000000
14.36659775 20.46151801 3.59000000
1.30605434 12.62519196 0.00000000
1.30605434 27.42714116 0.00000000
16.10800354 12.62519196 0.00000000
16.10800354 27.42714116 0.00000000
1.30605434 12.62519196 3.59000000
1.30605434 27.42714116 3.59000000
16.10800354 12.62519196 3.59000000
16.10800354 27.42714116 3.59000000
2.61210868 10.44843473 0.00000000
2.61210868 25.25038392 0.00000000
17.41405788 10.44843473 0.00000000
17.41405788 25.25038392 0.00000000
2.61210868 10.44843473 3.59000000
2.61210868 25.25038392 3.59000000
17.41405788 10.44843473 3.59000000
17.41405788 25.25038392 3.59000000
4.78886592 11.75448907 0.00000000
4.78886592 26.55643826 0.00000000
19.59081511 11.75448907 0.00000000
19.59081511 26.55643826 0.00000000
4.78886592 11.75448907 3.59000000
4.78886592 26.55643826 3.59000000
19.59081511 11.75448907 3.59000000
19.59081511 26.55643826 3.59000000
6.09492026 9.57773183 0.00000000
6.09492026 24.37968103 0.00000000
20.89686945 9.57773183 0.00000000
20.89686945 24.37968103 0.00000000
6.09492026 9.57773183 3.59000000
6.09492026 24.37968103 3.59000000
20.89686945 9.57773183 3.59000000
20.89686945 24.37968103 3.59000000
8.27167749 10.88378617 0.00000000
8.27167749 25.68573537 0.00000000
23.07362669 10.88378617 0.00000000
23.07362669 25.68573537 0.00000000
8.27167749 10.88378617 3.59000000
8.27167749 25.68573537 3.59000000
23.07362669 10.88378617 3.59000000
23.07362669 25.68573537 3.59000000
9.57773183 8.70702894 0.00000000
9.57773183 23.50897813 0.00000000
24.37968103 8.70702894 0.00000000
24.37968103 23.50897813 0.00000000
9.57773183 8.70702894 3.59000000
9.57773183 23.50897813 3.59000000
24.37968103 8.70702894 3.59000000
24.37968103 23.50897813 3.59000000
11.75448907 10.01308328 0.00000000
11.75448907 24.81503248 0.00000000
26.55643826 10.01308328 0.00000000
26.55643826 24.81503248 0.00000000
11.75448907 10.01308328 3.59000000
11.75448907 24.81503248 3.59000000
26.55643826 10.01308328 3.59000000
26.55643826 24.81503248 3.59000000
13.06054341 7.83632604 0.00000000
13.06054341 22.63827524 0.00000000
27.86249260 7.83632604 0.00000000
27.86249260 22.63827524 0.00000000
13.06054341 7.83632604 3.59000000
13.06054341 22.63827524 3.59000000
27.86249260 7.83632604 3.59000000
27.86249260 22.63827524 3.59000000
3.48281158 13.93124630 0.00000000
3.48281158 28.73319550 0.00000000
18.28476077 13.93124630 0.00000000
18.28476077 28.73319550 0.00000000
3.48281158 13.93124630 3.59000000
3.48281158 28.73319550 3.59000000
18.28476077 13.93124630 3.59000000
18.28476077 28.73319550 3.59000000
6.96562315 13.06054341 0.00000000
6.96562315 27.86249260 0.00000000
21.76757235 13.06054341 0.00000000
21.76757235 27.86249260 0.00000000
6.96562315 13.06054341 3.59000000
6.96562315 27.86249260 3.59000000
21.76757235 13.06054341 3.59000000
21.76757235 27.86249260 3.59000000
9.14238039 14.36659775 0.00000000
9.14238039 29.16854694 0.00000000
23.94432958 14.36659775 0.00000000
23.94432958 29.16854694 0.00000000
9.14238039 14.36659775 3.59000000
9.14238039 29.16854694 3.59000000
23.94432958 14.36659775 3.59000000
23.94432958 29.16854694 3.59000000
10.44843473 12.18984051 0.00000000
10.44843473 26.99178971 0.00000000
25.25038392 12.18984051 0.00000000
25.25038392 26.99178971 0.00000000
10.44843473 12.18984051 3.59000000
10.44843473 26.99178971 3.59000000
25.25038392 12.18984051 3.59000000
25.25038392 26.99178971 3.59000000
12.62519196 13.49589486 0.00000000
12.62519196 28.29784405 0.00000000
27.42714116 13.49589486 0.00000000
27.42714116 28.29784405 0.00000000
12.62519196 13.49589486 3.59000000
12.62519196 28.29784405 3.59000000
27.42714116 13.49589486 3.59000000
27.42714116 28.29784405 3.59000000
13.93124630 11.31913762 0.00000000
13.93124630 26.12108682 0.00000000
28.73319550 11.31913762 0.00000000
28.73319550 26.12108682 0.00000000
13.93124630 11.31913762 3.59000000
13.93124630 26.12108682 3.59000000
28.73319550 11.31913762 3.59000000
28.73319550 26.12108682 3.59000000
-7.40097460 0.00000000 1.79500000
-7.40097460 14.80194920 1.79500000
-22.20292379 0.00000000 1.79500000
-22.20292379 14.80194920 1.79500000
-7.40097460 0.00000000 5.38500000
-7.40097460 14.80194920 5.38500000
-22.20292379 0.00000000 5.38500000
-22.20292379 14.80194920 5.38500000
-3.91816302 0.87070289 1.79500000
-3.91816302 15.67265209 1.79500000
-18.72011222 0.87070289 1.79500000
-18.72011222 15.67265209 1.79500000
-3.91816302 0.87070289 5.38500000
-3.91816302 15.67265209 5.38500000
-18.72011222 0.87070289 5.38500000
-18.72011222 15.67265209 5.38500000
-0.43535145 1.74140579 1.79500000
-0.43535145 16.54335498 1.79500000
-15.23730064 1.74140579 1.79500000
-15.23730064 16.54335498 1.79500000
-0.43535145 1.74140579 5.38500000
-0.43535145 16.54335498 5.38500000
-15.23730064 1.74140579 5.38500000
-15.23730064 16.54335498 5.38500000
-13.06054341 0.43535145 1.79500000
-13.06054341 15.23730064 1.79500000
-27.86249260 0.43535145 1.79500000
-27.86249260 15.23730064 1.79500000
-13.06054341 0.43535145 5.38500000
-13.06054341 15.23730064 5.38500000
-27.86249260 0.43535145 5.38500000
-27.86249260 15.23730064 5.38500000
-11.75448907 2.61210868 1.79500000
-11.75448907 17.41405788 1.79500000
-26.55643826 2.61210868 1.79500000
-26.55643826 17.41405788 1.79500000
-11.75448907 2.61210868 5.38500000
-11.75448907 17.41405788 5.38500000
-26.55643826 2.61210868 5.38500000
-26.55643826 17.41405788 5.38500000
-9.57773183 1.30605434 1.79500000
-9.57773183 16.10800354 1.79500000
-24.37968103 1.30605434 1.79500000
-24.37968103 16.10800354 1.79500000
-9.57773183 1.30605434 5.38500000
-9.57773183 16.10800354 5.38500000
-24.37968103 1.30605434 5.38500000
-24.37968103 16.10800354 5.38500000
-8.27167749 3.48281158 1.79500000
-8.27167749 18.28476077 1.79500000
-23.07362669 3.48281158 1.79500000
-23.07362669 18.28476077 1.79500000
-8.27167749 3.48281158 5.38500000
-8.27167749 18.28476077 5.38500000
-23.07362669 3.48281158 5.38500000
-23.07362669 18.28476077 5.38500000
-6.09492026 2.17675723 1.79500000
-6.09492026 16.97870643 1.79500000
-20.89686945 2.17675723 1.79500000
-20.89686945 16.97870643 1.79500000
-6.09492026 2.17675723 5.38500000
-6.09492026 16.97870643 5.38500000
-20.89686945 2.17675723 5.38500000
-20.89686945 16.97870643 5.38500000
-4.78886592 4.35351447 1.79500000
-4.78886592 19.15546367 1.79500000
-19.59081511 4.35351447 1.79500000
-19.59081511 19.15546367 1.79500000
-4.78886592 4.35351447 5.38500000
-4.78886592 19.15546367 5.38500000
-19.59081511 4.35351447 5.38500000
-19.59081511 19.15546367 5.38500000
-2.61210868 3.04746013 1.79500000
-2.61210868 17.84940932 1.79500000
-17.41405788 3.04746013 1.79500000
-17.41405788 17.84940932 1.79500000
-2.61210868 3.04746013 5.38500000
-2.61210868 17.84940932 5.38500000
-17.41405788 3.04746013 5.38500000
-17.41405788 17.84940932 5.38500000
-1.30605434 5.22421736 1.79500000
-1.30605434 20.02616656 1.79500000
-16.10800354 5.22421736 1.79500000
-16.10800354 20.02616656 1.79500000
-1.30605434 5.22421736 5.38500000
-1.30605434 20.02616656 5.38500000
-16.10800354 5.22421736 5.38500000
-16.10800354 20.02616656 5.38500000
-13.93124630 3.91816302 1.79500000
-13.93124630 18.72011222 1.79500000
-28.73319550 3.91816302 1.79500000
-28.73319550 18.72011222 1.79500000
-13.93124630 3.91816302 5.38500000
-13.93124630 18.72011222 5.38500000
-28.73319550 3.91816302 5.38500000
-28.73319550 18.72011222 5.38500000
-12.62519196 6.09492026 1.79500000
-12.62519196 20.89686945 1.79500000
-27.42714116 6.09492026 1.79500000
-27.42714116 20.89686945 1.79500000
-12.62519196 6.09492026 5.38500000
-12.62519196 20.89686945 5.38500000
-27.42714116 6.09492026 5.38500000
-27.42714116 20.89686945 5.38500000
-10.44843473 4.78886592 1.79500000
-10.44843473 19.59081511 1.79500000
-25.25038392 4.78886592 1.79500000
-25.25038392 19.59081511 1.79500000
-10.44843473 4.78886592 5.38500000
-10.44843473 19.59081511 5.38500000
-25.25038392 4.78886592 5.38500000
-25.25038392 19.59081511 5.38500000
-9.14238039 6.96562315 1.79500000
-9.14238039 21.76757235 1.79500000
-23.94432958 6.96562315 1.79500000
-23.94432958 21.76757235 1.79500000
-9.14238039 6.96562315 5.38500000
-9.14238039 21.76757235 5.38500000
-23.94432958 6.96562315 5.38500000
-23.94432958 21.76757235 5.38500000
-6.96562315 5.65956881 1.79500000
-6.96562315 20.46151801 1.79500000
-21.76757235 5.65956881 1.79500000
-21.76757235 20.46151801 1.79500000
-6.96562315 5.65956881 5.38500000
-6.96562315 20.46151801 5.38500000
-21.76757235 5.65956881 5.38500000
-21.76757235 20.46151801 5.38500000
-5.65956881 7.83632604 1.79500000
-5.65956881 22.63827524 1.79500000
-20.46151801 7.83632604 1.79500000
-20.46151801 22.63827524 1.79500000
-5.65956881 7.83632604 5.38500000
-5.65956881 22.63827524 5.38500000
-20.46151801 7.83632604 5.38500000
-20.46151801 22.63827524 5.38500000
-3.48281158 6.53027170 1.79500000
-3.48281158 21.33222090 1.79500000
-18.28476077 6.53027170 1.79500000
-18.28476077 21.33222090 1.79500000
-3.48281158 6.53027170 5.38500000
-3.48281158 21.33222090 5.38500000
-18.28476077 6.53027170 5.38500000
-18.28476077 21.33222090 5.38500000
-2.17675723 8.70702894 1.79500000
-2.17675723 23.50897813 1.79500000
-16.97870643 8.70702894 1.79500000
-16.97870643 23.50897813 1.79500000
-2.17675723 8.70702894 5.38500000
-2.17675723 23.50897813 5.38500000
-16.97870643 8.70702894 5.38500000
-16.97870643 23.50897813 5.38500000
-14.80194920 7.40097460 1.79500000
-14.80194920 22.20292379 1.79500000
-29.60389839 7.40097460 1.79500000
-29.60389839 22.20292379 1.79500000
-14.80194920 7.40097460 5.38500000
-14.80194920 22.20292379 5.38500000
-29.60389839 7.40097460 5.38500000
-29.60389839 22.20292379 5.38500000
-13.49589486 9.57773183 1.79500000
-13.49589486 24.37968103 1.79500000
-28.29784405 9.57773183 1.79500000
-28.29784405 24.37968103 1.79500000
-13.49589486 9.57773183 5.38500000
-13.49589486 24.37968103 5.38500000
-28.29784405 9.57773183 5.38500000
-28.29784405 24.37968103 5.38500000
-11.31913762 8.27167749 1.79500000
-11.31913762 23.07362669 1.79500000
-26.12108682 8.27167749 1.79500000
-26.12108682 23.07362669 1.79500000
-11.31913762 8.27167749 5.38500000
-11.31913762 23.07362669 5.38500000
-26.12108682 8.27167749 5.38500000
-26.12108682 23.07362669 5.38500000
-10.01308328 10.44843473 1.79500000
-10.01308328 25.25038392 1.79500000
-24.81503248 10.44843473 1.79500000
-24.81503248 25.25038392 1.79500000
-10.01308328 10.44843473 5.38500000
-10.01308328 25.25038392 5.38500000
-24.81503248 10.44843473 5.38500000
-24.81503248 25.25038392 5.38500000
-7.83632604 9.14238039 1.79500000
-7.83632604 23.94432958 1.79500000
-22.63827524 9.14238039 1.79500000
-22.63827524 23.94432958 1.79500000
-7.83632604 9.14238039 5.38500000
-7.83632604 23.94432958 5.38500000
-22.63827524 9.14238039 5.38500000
-22.63827524 23.94432958 5.38500000
-6.53027170 11.31913762 1.79500000
-6.53027170 26.12108682 1.79500000
-21.33222090 11.31913762 1.79500000
-21.33222090 26.12108682 1.79500000
-6.53027170 11.31913762 5.38500000
-6.53027170 26.12108682 5.38500000
-21.33222090 11.31913762 5.38500000
-21.33222090 26.12108682 5.38500000
-4.35351447 10.01308328 1.79500000
-4.35351447 24.81503248 1.79500000
-19.15546367 10.01308328 1.79500000
-19.15546367 24.81503248 1.79500000
-4.35351447 10.01308328 5.38500000
-4.35351447 24.81503248 5.38500000
-19.15546367 10.01308328 5.38500000
-19.15546367 24.81503248 5.38500000
-3.04746013 12.18984051 1.79500000
-3.04746013 26.99178971 1.79500000
-17.84940932 12.18984051 1.79500000
-17.84940932 26.99178971 1.79500000
-3.04746013 12.18984051 5.38500000
-3.04746013 26.99178971 5.38500000
-17.84940932 12.18984051 5.38500000
-17.84940932 26.99178971 5.38500000
-0.87070289 10.88378617 1.79500000
-0.87070289 25.68573537 1.79500000
-15.67265209 10.88378617 1.79500000
-15.67265209 25.68573537 1.79500000
-0.87070289 10.88378617 5.38500000
-0.87070289 25.68573537 5.38500000
-15.67265209 10.88378617 5.38500000
-15.67265209 25.68573537 5.38500000
-14.36659775 13.06054341 1.79500000
-14.36659775 27.86249260 1.79500000
-29.16854694 13.06054341 1.79500000
-29.16854694 27.86249260 1.79500000
-14.36659775 13.06054341 5.38500000
-14.36659775 27.86249260 5.38500000
-29.16854694 13.06054341 5.38500000
-29.16854694 27.86249260 5.38500000
-12.18984051 11.75448907 1.79500000
-12.18984051 26.55643826 1.79500000
-26.99178971 11.75448907 1.79500000
-26.99178971 26.55643826 1.79500000
-12.18984051 11.75448907 5.38500000
-12.18984051 26.55643826 5.38500000
-26.99178971 11.75448907 5.38500000
-26.99178971 26.55643826 5.38500000
-10.88378617 13.93124630 1.79500000
-10.88378617 28.73319550 1.79500000
-25.68573537 13.93124630 1.79500000
-25.68573537 28.73319550 1.79500000
-10.88378617 13.93124630 5.38500000
-10.88378617 28.73319550 5.38500000
-25.68573537 13.93124630 5.38500000
-25.68573537 28.73319550 5.38500000
-8.70702894 12.62519196 1.79500000
-8.70702894 27.42714116 1.79500000
-23.50897813 12.62519196 1.79500000
-23.50897813 27.42714116 1.79500000
-8.70702894 12.62519196 5.38500000
-8.70702894 27.42714116 5.38500000
-23.50897813 12.62519196 5.38500000
-23.50897813 27.42714116 5.38500000
-5.22421736 13.49589486 1.79500000
-5.22421736 28.29784405 1.79500000
-20.02616656 13.49589486 1.79500000
-20.02616656 28.29784405 1.79500000
-5.22421736 13.49589486 5.38500000
-5.22421736 28.29784405 5.38500000
-20.02616656 13.49589486 5.38500000
-20.02616656 28.29784405 5.38500000
-1.74140579 14.36659775 1.79500000
-1.74140579 29.16854694 1.79500000
-16.54335498 14.36659775 1.79500000
-16.54335498 29.16854694 1.79500000
-1.74140579 14.36659775 5.38500000
-1.74140579 29.16854694 5.38500000
-16.54335498 14.36659775 5.38500000
-16.54335498 29.16854694 5.38500000
-5.65956881 0.43535145 0.00000000
-5.65956881 15.23730064 0.00000000
-20.46151801 0.43535145 0.00000000
-20.46151801 15.23730064 0.00000000
-5.65956881 0.43535145 3.59000000
-5.65956881 15.23730064 3.59000000
-20.46151801 0.43535145 3.59000000
-20.46151801 15.23730064 3.59000000
-2.17675723 1.30605434 0.00000000
-2.17675723 16.10800354 0.00000000
-16.97870643 1.30605434 0.00000000
-16.97870643 16.10800354 0.00000000
-2.17675723 1.30605434 3.59000000
-2.17675723 16.10800354 3.59000000
-16.97870643 1.30605434 3.59000000
-16.97870643 16.10800354 3.59000000
-14.80194920 0.00000000 0.00000000
-14.80194920 14.80194920 0.00000000
-29.60389839 0.00000000 0.00000000
-29.60389839 14.80194920 0.00000000
-14.80194920 0.00000000 3.59000000
-14.80194920 14.80194920 3.59000000
-29.60389839 0.00000000 3.59000000
-29.60389839 14.80194920 3.59000000
-13.49589486 2.17675723 0.00000000
-13.49589486 16.97870643 0.00000000
-28.29784405 2.17675723 0.00000000
-28.29784405 16.97870643 0.00000000
-13.49589486 2.17675723 3.59000000
-13.49589486 16.97870643 3.59000000
-28.29784405 2.17675723 3.59000000
-28.29784405 16.97870643 3.59000000
-11.31913762 0.87070289 0.00000000
-11.31913762 15.67265209 0.00000000
-26.12108682 0.87070289 0.00000000
-26.12108682 15.67265209 0.00000000
-11.31913762 0.87070289 3.59000000
-11.31913762 15.67265209 3.59000000
-26.12108682 0.87070289 3.59000000
-26.12108682 15.67265209 3.59000000
-10.01308328 3.04746013 0.00000000
-10.01308328 17.84940932 0.00000000
-24.81503248 3.04746013 0.00000000
-24.81503248 17.84940932 0.00000000
-10.01308328 3.04746013 3.59000000
-10.01308328 17.84940932 3.59000000
-24.81503248 3.04746013 3.59000000
-24.81503248 17.84940932 3.59000000
-7.83632604 1.74140579 0.00000000
-7.83632604 16.54335498 0.00000000
-22.63827524 1.74140579 0.00000000
-22.63827524 16.54335498 0.00000000
-7.83632604 1.74140579 3.59000000
-7.83632604 16.54335498 3.59000000
-22.63827524 1.74140579 3.59000000
-22.63827524 16.54335498 3.59000000
-6.53027170 3.91816302 0.00000000
-6.53027170 18.72011222 0.00000000
-21.33222090 3.91816302 0.00000000
-21.33222090 18.72011222 0.00000000
-6.53027170 3.91816302 3.59000000