#pair_style 	pace	
#pair_coeff 	* * copper.yace Cu
pair_style hybrid/overlay pace table linear 6901
pair_coeff * * pace copper_gbs.yace Cu
pair_coeff 1 1 table copper_gb.table Cu_Cu
