pair_style eam/alloy
pair_coeff * * Cu.eam.alloy Cu
