pair_style 	pace	
pair_coeff 	* * copper.yace Cu
#pair_style hybrid/overlay pace table linear 6901
#pair_coeff * * pace copper.yace Cu
#pair_coeff 1 1 table copper.table Cu_Cu
