# File generated with Atomsk by hari on 2023-01-30 17:53:03
1.000000
      4.10000000        0.00000000        0.00000000
      0.00000000        4.10000000        0.00000000
      0.00000000        0.00000000        4.10000000
 Cu
     4
Cartesian
      0.00000000        0.00000000        0.00000000
      0.00000000        2.05000000        2.05000000
      2.05000000        0.00000000        2.05000000
      2.05000000        2.05000000        0.00000000
